p cnf 20 16
-1 15 17 18 0 
-2 11 -3 -4 12 19 0 
-5 8 -2 11 19 0 
-6 -3 -2 11 20 0 
-7 10 19 0 
-8 5 -3 -2 11 20 0 
-9 -10 7 20 0 
-11 2 20 0 
-10 7 20 0 
-2 11 19 0 
-12 4 18 0 
-13 18 0 
-14 -15 1 17 -2 11 20 0 
-16 -2 11 19 0 
-17 1 15 18 0 
-2 11 20 0 
